************************************************************************
file with basedata            : J12054_.BAS
initial value random generator: 1514548946
************************************************************************
projects                      :  1
jobs (incl. supersource/sink ):  122
horizon                       :  638
RESOURCES
  - renewable                 :  4   R
  - nonrenewable              :  0   N
  - doubly constrained        :  0   D
************************************************************************
PROJECT INFORMATION:
pronr.  #jobs rel.date duedate tardcost  MPM-Time
    1    120      0       95       38       95
************************************************************************
PRECEDENCE RELATIONS:
jobnr.    #modes  #successors   successors
   1        1          3           2   3   4
   2        1          3           6   9  11
   3        1          3           5   7   8
   4        1          3          21  28  39
   5        1          3          18  41  69
   6        1          3          22  25  85
   7        1          3          10  89  95
   8        1          3          12  47  63
   9        1          3          19  56 105
  10        1          3          26  59  84
  11        1          3          17  22  33
  12        1          3          13  14  30
  13        1          3          16  25  97
  14        1          3          15  23  34
  15        1          2          51  78
  16        1          3          20  24  81
  17        1          3          27  50  60
  18        1          2          23  32
  19        1          3          35  57  63
  20        1          3          29  31 121
  21        1          2          35  40
  22        1          3          44  90  92
  23        1          3          52  71  98
  24        1          3          32  38  74
  25        1          1         114
  26        1          2          36 102
  27        1          3          58  69  83
  28        1          3          67  72  82
  29        1          3          34  64 103
  30        1          3          33  41  44
  31        1          3          58  68 104
  32        1          3          35  64 112
  33        1          3          51  55  93
  34        1          3          45  48  61
  35        1          2          61 100
  36        1          1          37
  37        1          3          50  74 108
  38        1          3          43  46  73
  39        1          3          42  81 120
  40        1          3          54  63  72
  41        1          3          50  65  85
  42        1          3          44  49  72
  43        1          3          62  64  65
  44        1          3          57  66  77
  45        1          2          52  83
  46        1          3          70  87  91
  47        1          3          57  67  91
  48        1          3          52  58  86
  49        1          2          51  93
  50        1          3          53 110 113
  51        1          3          68  73 109
  52        1          2          68 100
  53        1          3          77  92  97
  54        1          3          60  65  75
  55        1          2          70  76
  56        1          3          60  61 103
  57        1          3          73  98 114
  58        1          1         101
  59        1          1         120
  60        1          2          85 115
  61        1          2          96 101
  62        1          3          78  79  82
  63        1          2          78  89
  64        1          3          96 104 107
  65        1          1          66
  66        1          1          80
  67        1          3          75  76  88
  68        1          1          70
  69        1          3          79  88 102
  70        1          2          95 110
  71        1          3          80  84  97
  72        1          2          74  91
  73        1          1          80
  74        1          3          75  77  94
  75        1          3          86 105 117
  76        1          2          79 113
  77        1          1         115
  78        1          2          86  90
  79        1          1          84
  80        1          2          95 115
  81        1          2          83  90
  82        1          2         104 112
  83        1          2          87  89
  84        1          1         103
  85        1          2          92 100
  86        1          2          87 101
  87        1          1          98
  88        1          2          93 118
  89        1          1          99
  90        1          1          99
  91        1          2          94 108
  92        1          2          96 106
  93        1          3          94  99 112
  94        1          3         105 109 113
  95        1          1         119
  96        1          1         118
  97        1          1         116
  98        1          1         119
  99        1          1         107
 100        1          1         102
 101        1          1         111
 102        1          1         107
 103        1          1         106
 104        1          2         106 109
 105        1          1         116
 106        1          1         118
 107        1          1         108
 108        1          1         111
 109        1          1         110
 110        1          1         111
 111        1          1         114
 112        1          1         117
 113        1          1         117
 114        1          1         119
 115        1          1         116
 116        1          1         121
 117        1          1         121
 118        1          1         120
 119        1          1         122
 120        1          1         122
 121        1          1         122
 122        1          0        
************************************************************************
REQUESTS/DURATIONS:
jobnr. mode duration  R 1  R 2  R 3  R 4
------------------------------------------------------------------------
  1      1     0       0    0    0    0
  2      1     5       0    6    0    0
  3      1     4       1    8    8    2
  4      1     9       0    8    9   10
  5      1     6       8   10    2    7
  6      1     6       3   10    6    8
  7      1     9       5    0    9    0
  8      1     4       2    4    6    1
  9      1     7       1    6    8    0
 10      1     5       7    3    1    6
 11      1     8       0    3    7    4
 12      1     2       0    0    9    0
 13      1     8       4    7    2    0
 14      1     7       3    0    9    3
 15      1     3       0    0    7    0
 16      1     3       1    5    3    7
 17      1     3       4    6    0    1
 18      1     7      10    5    0    8
 19      1     4       0    3    1    0
 20      1     9      10    3    3    5
 21      1     5       7   10    9    0
 22      1     2       0    3    0    4
 23      1     5       0    0    6    9
 24      1     2       5    8    4    2
 25      1     3       4    9    0    0
 26      1     9       5    4    6    0
 27      1     7       0    6    3    6
 28      1     5       0    2    4    7
 29      1     5       3    0    3    7
 30      1     8       5    0    7    4
 31      1     6       6    3    0    8
 32      1     4       6   10    7    5
 33      1     2       0    0    6    0
 34      1     5       3    7    8    9
 35      1     6       0    6    3    7
 36      1     7       0    0    2    8
 37      1     8       0    1    5    5
 38      1     5       2    0    0    5
 39      1     5       3    3    8    4
 40      1     8       0    3    0   10
 41      1     1       2    9    4    7
 42      1     7       2    0    0    1
 43      1     7       8    9    5    2
 44      1     5       4    5    5    2
 45      1     8       3    0    1    4
 46      1     3       0    0    6    2
 47      1     1       1    8    0    8
 48      1     2       9    0    4    6
 49      1     3       0    4    6    6
 50      1     1      10    0    0   10
 51      1     3       0    0    2    5
 52      1     9       8    2    1    0
 53      1     9       0    0   10    4
 54      1     8       2    3    1   10
 55      1     6       0    0    2    7
 56      1     7       8    0    6    0
 57      1     6       5    0    9    0
 58      1     1       9    8    2    0
 59      1     8       1    0    4    0
 60      1     3       9    8    1    5
 61      1     3      10    1    4    0
 62      1     6       0    9    3    4
 63      1     4       1    1    6    4
 64      1     6       5    0   10    0
 65      1    10       9    7    7   10
 66      1     7       3    0    4    7
 67      1     7       5    3   10    0
 68      1     9      10    7    3    0
 69      1     1       0    7    4    7
 70      1     4       9    5    2    0
 71      1    10       8    7    7    0
 72      1     5       7    3    5    3
 73      1     8       0    2    0    0
 74      1     5       2    0    8    2
 75      1     8       1    0    4    0
 76      1     7       2    1    3    4
 77      1     9       5    1    8    0
 78      1     5       0    7    0    2
 79      1     2       2    9    0    1
 80      1     2       8    0    5   10
 81      1     6       5    3    2    0
 82      1     6       2    1    3    4
 83      1     6       8    7    2    7
 84      1     1       1    8    5    0
 85      1    10       2    0    6    0
 86      1     1       7    6    9    4
 87      1     4       0    1    5   10
 88      1     3       1    1    4   10
 89      1     7       5    7    1    6
 90      1     1       4    3    6    9
 91      1     4       6    9    4    7
 92      1     4       4    1    1    3
 93      1     2       0    8    8    2
 94      1     5       2    6    3    9
 95      1     3       7    6   10    2
 96      1     3       4    4   10    0
 97      1     2       0    5    0    7
 98      1     1       0    0    3    6
 99      1     8       9    8    6    4
100      1    10       2    0    1    9
101      1     5       7    0    6    1
102      1     4       1    3    1    0
103      1     8       8    0    6    0
104      1     8       0    0    5    7
105      1     2       8    3    0    6
106      1     9       6    0    9    5
107      1     9       2    1    4    9
108      1     1       9    7    1    0
109      1     6       6    0    0    8
110      1     6       1    5    7    7
111      1     7       5    5    0    7
112      1     4       6    7    9    7
113      1     4       6   10    4   10
114      1     2       1    1    1    0
115      1    10       0    0    3    9
116      1     1       0    0    0   10
117      1     8       5    3   10    5
118      1     1       4   10    5    5
119      1     5       0    8    1    3
120      1     9       1    5    9    9
121      1    10       3    4    3    6
122      1     0       0    0    0    0
************************************************************************
RESOURCEAVAILABILITIES:
  R 1  R 2  R 3  R 4
   28   26   34   28
************************************************************************
